; benchmark generated from python API
(set-info :status unknown)
(declare-fun L_2 () Real)
(declare-fun A_4 () Real)
(declare-fun S_4 () Real)
(declare-fun S_3 () Real)
(declare-fun A_3 () Real)
(declare-fun S_1 () Real)
(declare-fun S_2 () Real)
(declare-fun A_2 () Real)
(declare-fun A_1 () Real)
(declare-fun L_1 () Real)
(declare-fun S_0 () Real)
(declare-fun L_0 () Real)
(declare-fun A_0 () Real)
(assert
 (let ((?x1421 (* (- 1.0) S_3)))
 (let ((?x3032 (* (- (/ 1.0 3.0)) L_0)))
 (let ((?x22650 (+ (* (/ 2.0 3.0) S_4) (* (- (/ 1.0 3.0)) A_0) ?x3032 (* (- (/ 2.0 3.0)) A_4) ?x1421 (* (/ 2.0 3.0) S_0) (* (/ 2.0 3.0) L_1) (* (/ 2.0 3.0) A_3))))
 (let (($x24347 (<= ?x22650 0.0)))
 (let ((?x9067 (* (/ 1.0 2.0) A_3)))
 (let ((?x2301 (* (- (/ 1.0 2.0)) A_0)))
 (let ((?x9064 (* (- (/ 1.0 2.0)) A_4)))
 (let ((?x2577 (* (/ 1.0 2.0) S_4)))
 (let ((?x9146 (* (/ 1.0 2.0) A_1)))
 (let ((?x1447 (* 2.0 A_2)))
 (let ((?x1476 (* (- 2.0) A_1)))
 (let ((?x1450 (* 2.0 L_1)))
 (let ((?x1446 (* (- 2.0) L_2)))
 (let ((?x778 (* (- 1.0) L_0)))
 (let (($x2487 (<= (+ A_0 ?x778 ?x1421 ?x1446 ?x1450 ?x1476 ?x1447) 0.0)))
 (let (($x1793 (<= (+ A_2 (* (- 1.0) L_2) ?x1421) 0.0)))
 (let ((?x787 (* (- 1.0) L_1)))
 (let (($x699 (= ?x787 ?x778)))
 (let (($x52246 (or $x699 $x1793 $x2487 (<= (+ ?x9146 ?x2577 ?x9064 ?x1421 (* (/ 1.0 2.0) S_0) ?x2301 ?x9067) 0.0) $x24347)))
 (let ((?x790 (* (- 1.0) A_1)))
 (let ((?x6822 (* (/ 1.0 2.0) L_2)))
 (let ((?x6515 (* (- (/ 1.0 2.0)) A_2)))
 (let (($x715 (not (<= 0.0 (+ (* (- 1.0) A_0) S_0 L_1)))))
 (let (($x52398 (or $x699 $x715 (not (<= 0.0 (+ ?x6515 ?x6822 ?x2577 A_0 ?x778 L_1 ?x790))))))
 (let ((?x12583 (* (/ 1.0 3.0) A_3)))
 (let ((?x7640 (* (/ 1.0 3.0) L_1)))
 (let ((?x24198 (* (/ 1.0 3.0) S_0)))
 (let ((?x1816 (* (- 1.0) S_2)))
 (let ((?x24368 (* (- (/ 1.0 3.0)) A_4)))
 (let ((?x3127 (* (- (/ 2.0 3.0)) L_0)))
 (let ((?x3019 (* (/ 1.0 3.0) A_0)))
 (let ((?x6119 (* (/ 1.0 3.0) S_4)))
 (let ((?x9131 (* (- (/ 1.0 2.0)) A_1)))
 (let ((?x9118 (* (/ 1.0 2.0) L_1)))
 (let (($x1914 (<= (+ ?x787 A_1 ?x1816) 0.0)))
 (let (($x33515 (or $x699 $x1914 (<= (+ ?x2577 A_0 ?x778 ?x9064 ?x1816 ?x9118 ?x9131 ?x9067) 0.0) (<= (+ ?x6119 ?x3019 ?x3127 ?x24368 ?x1816 ?x24198 ?x7640 ?x12583) 0.0))))
 (let ((?x1462 (* 2.0 A_3)))
 (let ((?x1418 (* (- 2.0) A_2)))
 (let ((?x1417 (* 2.0 L_2)))
 (let ((?x1458 (* (- 2.0) A_4)))
 (let ((?x1603 (* (- 2.0) L_0)))
 (let ((?x1467 (* 2.0 A_0)))
 (let ((?x1629 (* 2.0 S_4)))
 (let (($x5767 (<= (+ ?x1629 ?x1467 ?x1603 ?x1458 ?x1450 ?x1417 ?x1476 ?x1418 ?x1462) 0.0)))
 (let (($x51853 (or $x699 $x715 (not (<= 0.0 (+ (* (- 1.0) A_3) S_4 A_0 ?x778 ?x1450 ?x790))))))
 (let (($x16787 (<= (+ (* (- 2.0) A_3) ?x1629 ?x1467 ?x1603 ?x1417 ?x1450 ?x1476) 0.0)))
 (let (($x2368 (<= (+ A_3 (* (- 1.0) S_4) (* (- 1.0) L_2)) 0.0)))
 (let (($x51697 (or $x2368 (<= (+ L_1 ?x790 (* (- 1.0) S_4) (* 2.0 S_2)) 0.0))))
 (let ((?x1335 (* 3.0 A_2)))
 (let ((?x2201 (* (- 3.0) A_1)))
 (let ((?x1342 (* 3.0 L_1)))
 (let ((?x1312 (* (- 3.0) L_2)))
 (let ((?x1821 (* (- 1.0) S_4)))
 (let (($x2542 (<= (+ ?x1821 A_0 ?x778 ?x1312 ?x1342 ?x2201 ?x1335) 0.0)))
 (let ((?x1339 (* (- 4.0) A_0)))
 (let ((?x1413 (* (- 2.0) S_4)))
 (let (($x51384 (or $x699 (<= (+ ?x1413 ?x1339 L_0 (* 3.0 S_0) ?x1342 ?x1312 ?x1335) 0.0) $x2368 $x2542)))
 (let (($x32623 (<= 0.0 (+ (* (/ 1.0 2.0) A_0) (* (/ 1.0 2.0) S_3) (* (- (/ 1.0 2.0)) L_0) L_1 ?x790))))
 (let (($x18677 (<= (+ S_4 A_0 ?x778 (* (- 1.0) A_4) ?x1421 L_1 ?x790 A_3) 0.0)))
 (let (($x33244 (<= 0.0 (+ (* (- (/ 2.0 3.0)) L_1) (* (/ 2.0 3.0) A_1) ?x6119 L_2 (* (- 1.0) A_2)))))
 (let (($x1847 (<= (+ L_2 ?x787) 0.0)))
 (let (($x32652 (<= 0.0 (+ (* (- 1.0) A_3) S_4 ?x787 A_1 ?x1417 (* (- 1.0) A_2)))))
 (let (($x50751 (or (not (<= 0.0 (+ A_0 ?x778 (* (- 1.0) L_2) ?x1450 ?x1476 A_2))) $x1847 (not $x32652))))
 (let (($x32079 (<= 0.0 (+ (* (- (/ 1.0 2.0)) L_1) ?x9146 (* (/ 1.0 2.0) S_3) L_2 (* (- 1.0) A_2)))))
 (let (($x7586 (<= (+ (* (- 1.0) A_3) S_4 ?x787 ?x1417 A_1 (* (- 1.0) A_2)) 0.0)))
 (let ((?x799 (* (- 1.0) A_2)))
 (let ((?x1438 (* (- 1.0) S_1)))
 (let ((?x1416 (* (- 2.0) L_1)))
 (let ((?x808 (* (- 1.0) A_3)))
 (let (($x14250 (<= (+ (* (- 2.0) A_3) ?x1629 ?x1467 ?x778 ?x1438 (* 3.0 L_2) ?x787 ?x799) 0.0)))
 (let (($x51419 (or $x1847 $x14250 (<= (+ ?x808 S_4 ?x1416 A_1 ?x1438 ?x1417 A_0 ?x799) 0.0))))
 (let ((?x864 (* (- 1.0) A_0)))
 (let ((?x796 (* (- 1.0) L_2)))
 (let (($x51606 (or $x1847 $x1914 (<= 0.0 (+ A_2 ?x796 ?x1821 A_4 ?x864 S_2 L_0 ?x808)))))
 (let (($x31843 (not (<= 0.0 (+ ?x787 A_1 S_4 (* (- 1.0) A_4) ?x1417 ?x1418 A_3)))))
 (let (($x7914 (not (<= (+ A_2 ?x796 ?x1821 A_4 ?x864 L_0 ?x787 A_1 ?x808) 0.0))))
 (let ((?x12831 (* (- (/ 3.0 4.0)) L_0)))
 (let ((?x15676 (* (/ 3.0 4.0) A_0)))
 (let ((?x15464 (* (/ 1.0 4.0) S_4)))
 (let ((?x15998 (+ ?x15464 ?x15676 ?x12831 L_1 ?x790)))
 (let (($x3304 (<= (+ ?x2577 (* (/ 3.0 2.0) A_0) (* (- (/ 1.0 2.0)) L_0) ?x1438 ?x787 L_2 ?x799) 0.0)))
 (let (($x3302 (<= (+ ?x2577 ?x2301 (* (/ 1.0 2.0) L_0) ?x1416 ?x1417 (* 2.0 A_1) ?x1418) 0.0)))
 (let (($x8089 (<= (+ (* (- (/ 5.0 3.0)) L_1) (* (/ 2.0 3.0) A_1) ?x6119 ?x1438 L_2 A_0 ?x799) 0.0)))
 (let (($x51735 (or $x1847 (<= (+ ?x1467 ?x778 ?x1438 ?x787 L_2 ?x799) (- 10.0)) (<= (+ ?x1416 A_1 ?x1438 L_2 A_0 ?x799) (- 5.0)))))
 (let (($x33169 (or $x2368 (<= (+ ?x1413 ?x1467 ?x1603) (- 30.0)) (<= (+ (* (- (/ 1.0 2.0)) L_1) ?x9146 (* (- (/ 1.0 2.0)) S_4)) (- 5.0)) (<= (+ A_2 ?x796 ?x1821) (- 5.0)))))
 (let (($x33160 (or $x699 $x715 (not (<= 0.0 (+ ?x799 L_2 S_3 A_0 ?x778 L_1 ?x790))))))
 (let (($x22304 (or $x1914 (<= (+ ?x799 L_2 S_4 ?x1467 (* (- 2.0) S_2) ?x1603) 0.0))))
 (let (($x8430 (<= (+ ?x799 L_2 S_4 (* (- 1.0) A_4) ?x1816 ?x778 S_0 L_1 A_3) 0.0)))
 (let (($x9101 (<= (+ (* (- (/ 3.0 2.0)) L_1) ?x9146 (* (/ 1.0 2.0) S_3) ?x1438 L_2 A_0 ?x799) 0.0)))
 (let (($x3124 (<= (+ (* (/ 4.0 3.0) A_0) ?x3032 (* (/ 2.0 3.0) S_3) ?x1438 ?x787 L_2 ?x799) 0.0)))
 (let ((?x1435 (* (- 1.0) S_0)))
 (let ((?x1459 (* 2.0 A_1)))
 (let ((?x1427 (* (- 3.0) L_1)))
 (let (($x33122 (or $x699 $x715 (not (<= (+ ?x864 S_0 L_1) 0.0)) (not (<= (+ ?x1427 ?x1459 ?x1435 L_0 L_2 ?x799) 0.0)))))
 (let (($x7111 (<= (+ (* (/ 3.0 2.0) L_1) ?x9131 (* (- (/ 1.0 2.0)) S_4) S_0 ?x796 ?x864 A_2) 0.0)))
 (let (($x51931 (or (<= (+ A_2 ?x796 ?x1821 ?x864 L_0 S_1) 0.0) $x2368 (<= (+ ?x1413 ?x1339 (* 4.0 L_0) (* 6.0 S_1)) 0.0))))
 (let (($x51499 (or $x1847 (<= (+ S_4 (* (- 1.0) A_4) ?x787 ?x1417 A_1 ?x1418 A_3) 0.0))))
 (let (($x8736 (<= (+ ?x1416 A_1 S_4 (* (- 1.0) A_4) ?x1438 ?x1417 A_0 ?x1418 A_3) 0.0)))
 (let ((?x1429 (* (- 3.0) A_2)))
 (let ((?x1428 (* 3.0 L_2)))
 (let (($x51579 (or $x1847 (<= (+ ?x1629 ?x1467 ?x778 ?x1458 ?x1438 ?x787 ?x1428 ?x1429 ?x1462) 0.0) $x8736)))
 (let (($x30070 (not (<= 0.0 (+ S_1 L_1 ?x790)))))
 (let (($x51713 (or (not (<= (+ A_2 ?x796 A_0 ?x778 ?x1438 L_1 ?x790) 0.0)) $x1847 $x30070)))
 (let (($x2132 (<= (+ ?x1416 ?x1459 ?x1421 L_0 ?x864) 0.0)))
 (let (($x17627 (or $x1793 $x2132 (<= (+ (* (- 2.0) A_3) ?x1629 A_0 ?x1421 ?x778 ?x1417) 0.0))))
 (let (($x16895 (<= (+ (* (- 2.0) A_3) ?x1629 ?x1467 ?x1603 (* (- 2.0) S_2) ?x1417) 0.0)))
 (let (($x8776 (<= (+ ?x787 A_1 S_4 (* (- 1.0) A_4) ?x1421 L_2 ?x799 A_3) 0.0)))
 (let (($x32246 (or $x699 (<= (+ ?x778 (* (- 2.0) S_2) S_0 L_1 ?x796 A_2) 0.0) $x1914 (<= (+ A_0 ?x778 ?x1816 ?x796 L_1 ?x790 A_2) 0.0))))
 (let (($x51724 (or $x1847 (not (<= (- 10.0) (+ A_0 ?x778 L_2 ?x799))) (not (<= (- 5.0) (+ ?x787 A_1 L_2 ?x799))))))
 (let ((?x3076 (* (/ 2.0 3.0) S_3)))
 (let (($x3126 (<= (+ (* (- (/ 2.0 3.0)) A_0) (* (/ 2.0 3.0) L_0) ?x3076 ?x1416 ?x1417 ?x1459 ?x1418) 0.0)))
 (let (($x7415 (or $x1793 (<= (+ ?x2577 (* (/ 3.0 2.0) A_0) (* (- (/ 3.0 2.0)) L_0) ?x1450 ?x1476) 0.0) (<= (+ (* (- (/ 2.0 3.0)) L_1) (* (/ 2.0 3.0) A_1) ?x6119 ?x1421) 0.0))))
 (let (($x8285 (or $x1793 $x2132 (<= (+ ?x2577 (* (/ 1.0 2.0) A_0) (* (- (/ 1.0 2.0)) L_0) ?x1421) 0.0))))
 (let ((?x2745 (* (- (/ 1.0 2.0)) L_0)))
 (let ((?x2716 (* (/ 1.0 2.0) A_0)))
 (let ((?x6937 (* (- (/ 1.0 2.0)) L_2)))
 (let ((?x6935 (* (/ 1.0 2.0) A_2)))
 (let ((?x1479 (+ ?x864 S_0 L_1)))
 (let (($x1480 (<= ?x1479 0.0)))
 (let (($x33842 (or $x1847 $x2132 (<= (+ ?x1629 A_0 ?x778 ?x1458 ?x1421 ?x1417 ?x1418 ?x1462) 0.0))))
 (let (($x30072 (or (<= (+ ?x787 A_1 ?x1421) (- 5.0)) $x1793 (<= (+ A_0 ?x778 ?x1421) (- 10.0)))))
 (let (($x3470 (<= (+ ?x2577 (* (/ 3.0 2.0) A_0) (* (- (/ 3.0 2.0)) L_0) (* (- 2.0) S_2)) 0.0)))
 (let (($x3078 (<= (+ (* (/ 4.0 3.0) A_0) (* (- (/ 4.0 3.0)) L_0) ?x3076 (* (- 2.0) S_2)) 0.0)))
 (let (($x41 (>= A_1 A_0)))
 (let (($x42 (>= A_2 A_1)))
 (let (($x43 (>= A_3 A_2)))
 (let (($x44 (>= A_4 A_3)))
 (and (<= ?x787 ?x778) $x44 $x43 $x42 $x41 (<= ?x796 ?x787) (or $x1914 $x3078) (or (<= (+ L_2 ?x787 A_1 ?x799) (- 5.0)) $x1847) (or $x1914 $x3470) (or $x699 (<= (+ ?x864 ?x1421 S_0 L_1 ?x796 A_2) 0.0) $x2487) $x30072 (or $x1847 (<= (+ A_0 S_2 ?x1438 ?x787 L_2 ?x799) 0.0)) (or $x1793 (<= (+ ?x864 L_0 ?x1421 (* 2.0 S_1)) 0.0)) $x33842 (or $x1847 (<= (+ ?x864 L_0 S_1 L_2 ?x787 A_1 ?x799) 0.0)) (or $x1480 (not (<= 0.0 (+ ?x6935 ?x6937 ?x2716 ?x2745 L_1 ?x790)))) (or $x1847 (not (<= 0.0 (+ S_2 L_2 ?x799)))) $x8285 $x7415 (or $x2368 (<= (+ ?x1413 ?x864 L_0 (* 3.0 S_2)) 0.0)) (or $x1847 (<= (+ ?x864 L_0 S_2 ?x1417 ?x1416 ?x1459 ?x1418) 0.0)) (or $x1847 $x3126) (or $x1914 (<= (+ A_0 ?x1816 ?x778) (- 5.0))) $x51724 $x32246 (or $x1847 $x7914 $x8776) (or $x1914 $x16895) $x17627 $x51713 $x51579 $x51499 (or $x1793 (<= (+ ?x808 S_4 ?x787 A_1 ?x1421 L_2) 0.0) $x16787) $x51931 (or $x699 $x2368 $x2542 $x7111) $x33122 (or $x1847 $x3124 $x9101) (or $x1914 (<= (+ ?x799 L_2 S_3 A_0 ?x1816 ?x778) 0.0)) (or $x699 $x1914 $x5767 $x8430) $x22304 $x33160 $x33169 $x51735 (or $x1847 $x8089 (not (<= 0.0 ?x15998))) (or $x1847 $x3302) (or $x1847 $x3304 (not (<= ?x15998 0.0))) (or $x1847 $x7914 $x31843) (or $x699 $x715 $x30070) $x51606 $x51419 (or $x1847 $x7586) (or $x1847 (not $x32079)) $x50751 (or $x1847 (not $x33244)) (or $x699 $x1793 $x18677 $x24347 $x32623) $x51384 $x51697 (or $x699 $x715 (not (<= (- 5.0) (+ A_0 ?x778 L_1 ?x790)))) (or $x699 $x715 $x16787) $x51853 (or $x699 $x715 $x5767) $x33515 $x52398 $x52246 (<= (+ ?x864 L_0 S_0) 0.0) (<= (+ ?x1438 S_0) 0.0) (<= (+ S_1 L_1 ?x790) 0.0) (<= (+ ?x799 L_2 S_2) 0.0) (<= (+ ?x1421 S_2) 0.0) (<= (+ ?x1816 S_1) 0.0) (<= (+ ?x808 S_3 L_2) 0.0) (<= (+ ?x1413 (* 2.0 S_3)) 0.0) (<= (+ S_4 (* (- 1.0) A_4) L_2) 0.0))))))))))))))))))))))))))))))))))))))))))))))))))))))))))))))))))))))))))))))))))))))))))))))))))))))))))))))))))))))))))))))))))
(check-sat)
